c "68148.clq"
p edge 120 464
e 1 5
e 1 6
e 1 9
e 1 14
e 1 21
e 1 49
e 1 56
e 1 88
e 2 5
e 2 34
e 2 37
e 2 44
e 2 53
e 2 85
e 2 90
e 3 5
e 3 6
e 3 7
e 3 8
e 3 11
e 3 12
e 3 13
e 3 14
e 3 15
e 3 16
e 3 22
e 3 24
e 3 25
e 3 27
e 3 28
e 3 29
e 3 30
e 3 31
e 3 33
e 3 40
e 3 42
e 3 55
e 3 58
e 3 64
e 3 65
e 3 74
e 3 80
e 3 83
e 3 84
e 3 87
e 3 89
e 3 102
e 3 117
e 4 5
e 4 6
e 4 7
e 4 10
e 4 13
e 4 16
e 4 18
e 4 19
e 4 23
e 4 25
e 4 27
e 4 45
e 4 47
e 4 52
e 4 62
e 4 69
e 4 98
e 4 106
e 5 6
e 5 7
e 5 8
e 5 9
e 5 10
e 5 15
e 5 17
e 5 22
e 5 26
e 5 30
e 5 36
e 5 39
e 5 42
e 5 43
e 5 56
e 5 67
e 5 72
e 5 77
e 5 84
e 5 89
e 5 93
e 5 98
e 5 100
e 5 101
e 5 103
e 5 105
e 5 108
e 6 7
e 6 8
e 6 9
e 6 10
e 6 12
e 6 16
e 6 17
e 6 20
e 6 21
e 6 23
e 6 32
e 6 33
e 6 34
e 6 37
e 6 38
e 6 39
e 6 44
e 6 46
e 6 48
e 6 51
e 6 52
e 6 55
e 6 66
e 6 71
e 6 73
e 6 76
e 6 78
e 6 86
e 6 92
e 6 96
e 6 99
e 6 103
e 6 105
e 6 109
e 6 115
e 7 8
e 7 9
e 7 11
e 7 12
e 7 17
e 7 18
e 7 20
e 7 23
e 7 24
e 7 26
e 7 27
e 7 35
e 7 38
e 7 40
e 7 45
e 7 51
e 7 58
e 7 60
e 7 64
e 7 87
e 7 91
e 7 96
e 7 109
e 7 110
e 7 111
e 7 113
e 7 117
e 7 118
e 7 120
e 8 10
e 8 11
e 8 19
e 8 27
e 8 35
e 8 45
e 8 46
e 8 50
e 8 81
e 8 110
e 9 11
e 9 12
e 9 13
e 9 14
e 9 15
e 9 16
e 9 22
e 9 26
e 9 30
e 9 31
e 9 33
e 9 36
e 9 39
e 9 45
e 9 48
e 9 50
e 9 55
e 9 68
e 9 69
e 9 73
e 9 76
e 9 95
e 9 97
e 9 111
e 9 117
e 10 17
e 10 20
e 10 29
e 10 62
e 10 79
e 10 93
e 10 114
e 11 13
e 11 39
e 11 64
e 12 14
e 12 15
e 12 36
e 12 38
e 12 43
e 12 50
e 12 71
e 12 82
e 12 83
e 12 120
e 13 29
e 13 54
e 13 112
e 14 18
e 14 19
e 14 20
e 14 24
e 14 25
e 14 26
e 14 29
e 14 32
e 14 35
e 14 57
e 14 62
e 14 66
e 14 69
e 14 75
e 14 78
e 14 100
e 14 101
e 14 104
e 14 114
e 16 18
e 16 28
e 16 38
e 16 41
e 16 42
e 16 56
e 16 63
e 16 79
e 16 87
e 16 106
e 16 110
e 17 19
e 17 52
e 17 53
e 17 59
e 17 64
e 17 77
e 17 89
e 17 108
e 17 116
e 17 119
e 18 23
e 18 41
e 18 89
e 18 94
e 18 96
e 18 97
e 18 114
e 19 21
e 19 24
e 19 30
e 19 35
e 19 40
e 19 43
e 19 53
e 19 54
e 19 66
e 19 67
e 19 77
e 19 83
e 19 95
e 19 101
e 20 21
e 20 22
e 20 28
e 20 31
e 20 44
e 20 46
e 20 47
e 20 51
e 20 60
e 20 61
e 20 68
e 20 70
e 20 80
e 20 96
e 20 103
e 20 104
e 20 109
e 21 25
e 21 49
e 21 51
e 21 57
e 21 67
e 21 70
e 21 90
e 21 92
e 22 32
e 22 48
e 22 61
e 22 86
e 22 98
e 22 120
e 23 32
e 23 61
e 23 81
e 24 31
e 24 71
e 24 88
e 24 114
e 25 41
e 26 33
e 26 36
e 26 50
e 26 57
e 26 70
e 26 72
e 26 75
e 26 78
e 26 82
e 26 91
e 26 95
e 26 116
e 27 28
e 27 74
e 27 111
e 27 113
e 28 37
e 28 52
e 28 79
e 28 82
e 28 104
e 29 47
e 29 72
e 29 112
e 30 90
e 31 63
e 32 34
e 32 40
e 32 43
e 32 47
e 32 65
e 32 74
e 32 85
e 32 101
e 32 105
e 32 106
e 33 34
e 33 41
e 33 44
e 33 95
e 34 73
e 35 37
e 35 42
e 35 49
e 35 113
e 36 54
e 36 58
e 36 71
e 36 75
e 36 78
e 36 81
e 36 90
e 36 102
e 36 105
e 37 49
e 37 59
e 38 55
e 38 62
e 38 84
e 38 85
e 38 91
e 38 94
e 38 102
e 38 106
e 39 53
e 39 57
e 40 63
e 40 93
e 40 107
e 41 59
e 41 107
e 42 54
e 42 63
e 42 69
e 43 46
e 43 58
e 43 59
e 43 72
e 44 48
e 44 65
e 44 80
e 44 115
e 45 68
e 45 107
e 46 61
e 46 66
e 46 92
e 47 68
e 47 94
e 47 100
e 48 74
e 49 65
e 49 82
e 49 113
e 50 60
e 50 77
e 51 56
e 51 97
e 51 116
e 52 67
e 52 100
e 53 75
e 53 76
e 53 86
e 53 88
e 53 108
e 53 116
e 56 92
e 56 98
e 56 108
e 57 60
e 57 93
e 57 109
e 58 70
e 58 79
e 59 83
e 59 119
e 60 84
e 60 107
e 60 112
e 60 120
e 61 73
e 61 88
e 63 102
e 65 112
e 66 118
e 67 76
e 69 87
e 71 111
e 71 115
e 73 110
e 75 80
e 75 86
e 76 94
e 79 85
e 80 81
e 82 104
e 86 91
e 94 99
e 95 99
e 96 97
e 96 118
e 98 99
e 100 118
e 102 103
e 106 119
e 108 115
e 110 117
e 114 119
